2268, 0, 0, 83, 0
2269, 0, 1, 44, 3
2270, 0, 2, 58, 2
2271, 0, 3, 93, 1
2272, 1, 0, 69, 3
2273, 1, 1, 40, 0
2274, 1, 2, 73, 1
2275, 1, 3, 65, 2
2276, 2, 0, 84, 2
2277, 2, 1, 57, 1
2278, 2, 2, 65, 0
2279, 2, 3, 64, 3
2280, 3, 0, 46, 2
2281, 3, 1, 82, 3
2282, 3, 2, 80, 1
2283, 3, 3, 88, 0
